WARNING: for repeatability, setting FPU to use double precision
============================[ Problem Statistics ]=============================
|                                                                             |
|  Number of variables:            50                                         |
|  Number of clauses:             218                                         |
|  Parse time:                   0.00 s                                       |
|                                                                             |
============================[ Search Statistics ]==============================
| Conflicts |          ORIGINAL         |          LEARNT          | Progress |
|           |    Vars  Clauses Literals |    Limit  Clauses Lit/Cl |          |
===============================================================================
===============================================================================
restarts              : 1
conflicts             : 55             (36938 /sec)
decisions             : 58             (0.00 % random) (38952 /sec)
propagations          : 773            (519140 /sec)
conflict literals     : 187            (14.61 % deleted)
Memory used           : 20.00 MB
CPU time              : 0.001489 s

UNSATISFIABLE
